data/lp_files/q3/32_3.lp
\ Model foo
\ LP format - for model browsing. Use MPS format to capture full model detail.
Minimize
  z
Subject To
 allocateEach[1]: x[1,1] + x[2,1] = 1
 allocateEach[2]: x[1,2] + x[2,2] = 1
 allocateEach[3]: x[1,3] + x[2,3] = 1
 allocateEach[4]: x[1,4] + x[2,4] = 1
 allocateEach[5]: x[1,5] + x[2,5] = 1
 allocateEach[6]: x[1,6] + x[2,6] = 1
 allocateEach[7]: x[1,7] + x[2,7] = 1
 allocateEach[8]: x[1,8] + x[2,8] = 1
 allocateEach[9]: x[1,9] + x[2,9] = 1
 allocateEach[10]: x[1,10] + x[2,10] = 1
 allocateEach[11]: x[1,11] + x[2,11] = 1
 allocateEach[12]: x[1,12] + x[2,12] = 1
 allocateAllCash: cashProportion[1] + cashProportion[2] = 1
 findWorstP[1,2]: z + 0.0272190315468576 cashProportion[1]
   - 0.0272190315468576 cashProportion[2] + 0.128609924058902 x[1,1]
   + 0.1104276109856011 x[1,2] + 0.1030648629521761 x[1,3]
   + 0.0702523204224394 x[1,4] + 0.1090122213451645 x[1,5]
   + 0.1037045101935273 x[1,6] + 0.00812488091673698 x[1,7]
   + 0.0422303274449495 x[1,8] + 0.1352513677563352 x[1,9]
   + 0.0870736819183973 x[1,10] + 0.0744576607964288 x[1,11]
   + 5.7159966248400873e-04 x[1,12] - 0.128609924058902 x[2,1]
   - 0.1104276109856011 x[2,2] - 0.1030648629521761 x[2,3]
   - 0.0702523204224394 x[2,4] - 0.1090122213451645 x[2,5]
   - 0.1037045101935273 x[2,6] - 0.00812488091673698 x[2,7]
   - 0.0422303274449495 x[2,8] - 0.1352513677563352 x[2,9]
   - 0.0870736819183973 x[2,10] - 0.0744576607964288 x[2,11]
   - 5.7159966248400873e-04 x[2,12] >= 0
 findWorstP[2,1]: z - 0.0280520646319569 cashProportion[1]
   + 0.0280520646319569 cashProportion[2] - 0.1144103456014363 x[1,1]
   - 0.1397413599640934 x[1,2] - 0.0439716113105925 x[1,3]
   - 0.0752216113105925 x[1,4] - 0.1396431777378815 x[1,5]
   - 0.00977614452423698 x[1,6] - 0.0186826750448833 x[1,7]
   - 0.0122307001795332 x[1,8] - 0.0933572710951526 x[1,9]
   - 0.0718273114901257 x[1,10] - 0.1284784560143627 x[1,11]
   - 0.1246072710951526 x[1,12] + 0.1144103456014363 x[2,1]
   + 0.1397413599640934 x[2,2] + 0.0439716113105925 x[2,3]
   + 0.0752216113105925 x[2,4] + 0.1396431777378815 x[2,5]
   + 0.00977614452423698 x[2,6] + 0.0186826750448833 x[2,7]
   + 0.0122307001795332 x[2,8] + 0.0933572710951526 x[2,9]
   + 0.0718273114901257 x[2,10] + 0.1284784560143627 x[2,11]
   + 0.1246072710951526 x[2,12] >= 0
Bounds
 z <= 1
 -infinity <= cashProportion[1] <= 1
 -infinity <= cashProportion[2] <= 1
Binaries
 x[1,1] x[1,2] x[1,3] x[1,4] x[1,5] x[1,6] x[1,7] x[1,8] x[1,9] x[1,10]
 x[1,11] x[1,12] x[2,1] x[2,2] x[2,3] x[2,4] x[2,5] x[2,6] x[2,7] x[2,8]
 x[2,9] x[2,10] x[2,11] x[2,12]
End
