data/mps_files/q3/32_3.mps
NAME foo
ROWS
 N  OBJ
 E  allocateEach[1]
 E  allocateEach[2]
 E  allocateEach[3]
 E  allocateEach[4]
 E  allocateEach[5]
 E  allocateEach[6]
 E  allocateEach[7]
 E  allocateEach[8]
 E  allocateEach[9]
 E  allocateEach[10]
 E  allocateEach[11]
 E  allocateEach[12]
 E  allocateAllCash
 G  findWorstP[1,2]
 G  findWorstP[2,1]
COLUMNS
    z         OBJ       1
    z         findWorstP[1,2]  1
    z         findWorstP[2,1]  1
    cashProportion[1]  allocateAllCash  1
    cashProportion[1]  findWorstP[1,2]  2.7219031546857560e-02
    cashProportion[1]  findWorstP[2,1]  -2.8052064631956915e-02
    cashProportion[2]  allocateAllCash  1
    cashProportion[2]  findWorstP[1,2]  -2.7219031546857560e-02
    cashProportion[2]  findWorstP[2,1]  2.8052064631956915e-02
    MARKER    'MARKER'                 'INTORG'
    x[1,1]    allocateEach[1]  1
    x[1,1]    findWorstP[1,2]  1.2860992405890195e-01
    x[1,1]    findWorstP[2,1]  -1.1441034560143627e-01
    x[1,2]    allocateEach[2]  1
    x[1,2]    findWorstP[1,2]  1.1042761098560111e-01
    x[1,2]    findWorstP[2,1]  -1.3974135996409337e-01
    x[1,3]    allocateEach[3]  1
    x[1,3]    findWorstP[1,2]  1.0306486295217614e-01
    x[1,3]    findWorstP[2,1]  -4.3971611310592462e-02
    x[1,4]    allocateEach[4]  1
    x[1,4]    findWorstP[1,2]  7.0252320422439354e-02
    x[1,4]    findWorstP[2,1]  -7.5221611310592462e-02
    x[1,5]    allocateEach[5]  1
    x[1,5]    findWorstP[1,2]  1.0901222134516453e-01
    x[1,5]    findWorstP[2,1]  -1.3964317773788151e-01
    x[1,6]    allocateEach[6]  1
    x[1,6]    findWorstP[1,2]  1.0370451019352731e-01
    x[1,6]    findWorstP[2,1]  -9.7761445242369842e-03
    x[1,7]    allocateEach[7]  1
    x[1,7]    findWorstP[1,2]  0.00812488091673698
    x[1,7]    findWorstP[2,1]  -1.8682675044883305e-02
    x[1,8]    allocateEach[8]  1
    x[1,8]    findWorstP[1,2]  4.2230327444949506e-02
    x[1,8]    findWorstP[2,1]  -1.2230700179533214e-02
    x[1,9]    allocateEach[9]  1
    x[1,9]    findWorstP[1,2]  1.3525136775633520e-01
    x[1,9]    findWorstP[2,1]  -0.0933572710951526
    x[1,10]   allocateEach[10]  1
    x[1,10]   findWorstP[1,2]  8.7073681918397330e-02
    x[1,10]   findWorstP[2,1]  -7.1827311490125681e-02
    x[1,11]   allocateEach[11]  1
    x[1,11]   findWorstP[1,2]  7.4457660796428848e-02
    x[1,11]   findWorstP[2,1]  -1.2847845601436267e-01
    x[1,12]   allocateEach[12]  1
    x[1,12]   findWorstP[1,2]  5.7159966248400873e-04
    x[1,12]   findWorstP[2,1]  -1.2460727109515260e-01
    x[2,1]    allocateEach[1]  1
    x[2,1]    findWorstP[1,2]  -1.2860992405890195e-01
    x[2,1]    findWorstP[2,1]  1.1441034560143627e-01
    x[2,2]    allocateEach[2]  1
    x[2,2]    findWorstP[1,2]  -1.1042761098560111e-01
    x[2,2]    findWorstP[2,1]  1.3974135996409337e-01
    x[2,3]    allocateEach[3]  1
    x[2,3]    findWorstP[1,2]  -1.0306486295217614e-01
    x[2,3]    findWorstP[2,1]  4.3971611310592462e-02
    x[2,4]    allocateEach[4]  1
    x[2,4]    findWorstP[1,2]  -7.0252320422439354e-02
    x[2,4]    findWorstP[2,1]  7.5221611310592462e-02
    x[2,5]    allocateEach[5]  1
    x[2,5]    findWorstP[1,2]  -1.0901222134516453e-01
    x[2,5]    findWorstP[2,1]  1.3964317773788151e-01
    x[2,6]    allocateEach[6]  1
    x[2,6]    findWorstP[1,2]  -1.0370451019352731e-01
    x[2,6]    findWorstP[2,1]  9.7761445242369842e-03
    x[2,7]    allocateEach[7]  1
    x[2,7]    findWorstP[1,2]  -0.00812488091673698
    x[2,7]    findWorstP[2,1]  1.8682675044883305e-02
    x[2,8]    allocateEach[8]  1
    x[2,8]    findWorstP[1,2]  -4.2230327444949506e-02
    x[2,8]    findWorstP[2,1]  1.2230700179533214e-02
    x[2,9]    allocateEach[9]  1
    x[2,9]    findWorstP[1,2]  -1.3525136775633520e-01
    x[2,9]    findWorstP[2,1]  0.0933572710951526
    x[2,10]   allocateEach[10]  1
    x[2,10]   findWorstP[1,2]  -8.7073681918397330e-02
    x[2,10]   findWorstP[2,1]  7.1827311490125681e-02
    x[2,11]   allocateEach[11]  1
    x[2,11]   findWorstP[1,2]  -7.4457660796428848e-02
    x[2,11]   findWorstP[2,1]  1.2847845601436267e-01
    x[2,12]   allocateEach[12]  1
    x[2,12]   findWorstP[1,2]  -5.7159966248400873e-04
    x[2,12]   findWorstP[2,1]  1.2460727109515260e-01
    MARKER    'MARKER'                 'INTEND'
RHS
    RHS1      allocateEach[1]  1
    RHS1      allocateEach[2]  1
    RHS1      allocateEach[3]  1
    RHS1      allocateEach[4]  1
    RHS1      allocateEach[5]  1
    RHS1      allocateEach[6]  1
    RHS1      allocateEach[7]  1
    RHS1      allocateEach[8]  1
    RHS1      allocateEach[9]  1
    RHS1      allocateEach[10]  1
    RHS1      allocateEach[11]  1
    RHS1      allocateEach[12]  1
    RHS1      allocateAllCash  1
BOUNDS
 UP BND1      z         1
 MI BND1      cashProportion[1]
 UP BND1      cashProportion[1]  1
 MI BND1      cashProportion[2]
 UP BND1      cashProportion[2]  1
 BV BND1      x[1,1]  
 BV BND1      x[1,2]  
 BV BND1      x[1,3]  
 BV BND1      x[1,4]  
 BV BND1      x[1,5]  
 BV BND1      x[1,6]  
 BV BND1      x[1,7]  
 BV BND1      x[1,8]  
 BV BND1      x[1,9]  
 BV BND1      x[1,10] 
 BV BND1      x[1,11] 
 BV BND1      x[1,12] 
 BV BND1      x[2,1]  
 BV BND1      x[2,2]  
 BV BND1      x[2,3]  
 BV BND1      x[2,4]  
 BV BND1      x[2,5]  
 BV BND1      x[2,6]  
 BV BND1      x[2,7]  
 BV BND1      x[2,8]  
 BV BND1      x[2,9]  
 BV BND1      x[2,10] 
 BV BND1      x[2,11] 
 BV BND1      x[2,12] 
ENDATA
